CLW07
Position Depot: Random
Horizon for Depot: Large
Position of customers: Cluster
Distribution of the demand: Small
Width of time windows: Wide
Distribution of the service: Large

VEHICLE 
NUMBER 	 CAPACITY 
 5 	 	 77 
 
CUSTOMER
CUST NO. 	 XCOORD.  	 YCOORD. 	 DEMAND 	 READY TIME 	 DUE DATE 	 SERVICE TIME 
 0 	 	 786 	 	 415 	 	 0 	 	 0 	 	 3641 	 	 0 
  1 	 	 559 	 	 952 	 	 7 	 	 2836 	 	 3263 	 	 135 
  2 	 	 525 	 	 734 	 	 5 	 	 3441 	 	 3641 	 	 193 
  3 	 	 855 	 	 16 	 	 5 	 	 880 	 	 1326 	 	 150 
  4 	 	 597 	 	 171 	 	 9 	 	 2539 	 	 2982 	 	 124 
  5 	 	 634 	 	 683 	 	 6 	 	 2690 	 	 2907 	 	 171 
  6 	 	 636 	 	 14 	 	 9 	 	 94 	 	 470 	 	 165 
  7 	 	 377 	 	 529 	 	 8 	 	 2017 	 	 2290 	 	 200 
  8 	 	 480 	 	 213 	 	 10 	 	 2647 	 	 3002 	 	 166 
  9 	 	 508 	 	 233 	 	 8 	 	 122 	 	 365 	 	 175 
  10 	 	 352 	 	 551 	 	 8 	 	 3030 	 	 3381 	 	 148 
  11 	 	 600 	 	 135 	 	 10 	 	 3052 	 	 3453 	 	 132 
  12 	 	 701 	 	 208 	 	 8 	 	 842 	 	 1097 	 	 117 
  13 	 	 609 	 	 93 	 	 8 	 	 3304 	 	 3630 	 	 136 
  14 	 	 595 	 	 953 	 	 8 	 	 2975 	 	 3470 	 	 164 
  15 	 	 530 	 	 820 	 	 6 	 	 1345 	 	 1726 	 	 112 
  16 	 	 579 	 	 711 	 	 9 	 	 391 	 	 849 	 	 153 
  17 	 	 482 	 	 931 	 	 5 	 	 645 	 	 1077 	 	 161 
  18 	 	 423 	 	 665 	 	 7 	 	 1219 	 	 1649 	 	 173 
  19 	 	 700 	 	 770 	 	 8 	 	 2316 	 	 2761 	 	 154 
  20 	 	 885 	 	 139 	 	 10 	 	 1333 	 	 1687 	 	 180 
  21 	 	 512 	 	 215 	 	 9 	 	 1703 	 	 1936 	 	 139 
  22 	 	 848 	 	 95 	 	 7 	 	 1721 	 	 1985 	 	 156 
  23 	 	 815 	 	 78 	 	 5 	 	 2169 	 	 2607 	 	 181 
  24 	 	 761 	 	 18 	 	 10 	 	 61 	 	 437 	 	 175 
  25 	 	 548 	 	 641 	 	 5 	 	 438 	 	 711 	 	 159 
  26 	 	 636 	 	 782 	 	 9 	 	 207 	 	 436 	 	 118 
  27 	 	 554 	 	 666 	 	 9 	 	 1535 	 	 1803 	 	 154 
  28 	 	 617 	 	 169 	 	 6 	 	 1792 	 	 2077 	 	 109 
  29 	 	 599 	 	 570 	 	 7 	 	 2188 	 	 2570 	 	 186 
  30 	 	 574 	 	 909 	 	 10 	 	 2046 	 	 2252 	 	 114 
  31 	 	 655 	 	 129 	 	 5 	 	 2163 	 	 2389 	 	 112 
  32 	 	 310 	 	 959 	 	 5 	 	 2139 	 	 2561 	 	 184 
  33 	 	 935 	 	 12 	 	 8 	 	 253 	 	 617 	 	 131 
  34 	 	 865 	 	 19 	 	 9 	 	 3018 	 	 3230 	 	 144 
  35 	 	 549 	 	 927 	 	 8 	 	 1132 	 	 1479 	 	 170 
  36 	 	 534 	 	 983 	 	 9 	 	 1566 	 	 1815 	 	 189 
  37 	 	 644 	 	 157 	 	 6 	 	 1529 	 	 1841 	 	 107 
  38 	 	 610 	 	 230 	 	 6 	 	 1806 	 	 2016 	 	 153 
  39 	 	 369 	 	 759 	 	 8 	 	 393 	 	 883 	 	 144 
  40 	 	 701 	 	 915 	 	 9 	 	 2142 	 	 2465 	 	 171 
  41 	 	 636 	 	 161 	 	 8 	 	 162 	 	 439 	 	 129 
  42 	 	 896 	 	 77 	 	 6 	 	 703 	 	 992 	 	 187 
  43 	 	 512 	 	 964 	 	 6 	 	 2250 	 	 2549 	 	 115 
  44 	 	 692 	 	 256 	 	 6 	 	 1113 	 	 1427 	 	 176 
  45 	 	 841 	 	 135 	 	 7 	 	 30 	 	 410 	 	 199 
  46 	 	 485 	 	 655 	 	 8 	 	 903 	 	 1335 	 	 153 
  47 	 	 389 	 	 685 	 	 7 	 	 2293 	 	 2541 	 	 127 
  48 	 	 911 	 	 28 	 	 9 	 	 971 	 	 1394 	 	 157 
  49 	 	 741 	 	 63 	 	 10 	 	 2657 	 	 2962 	 	 186 
  50 	 	 509 	 	 937 	 	 10 	 	 2120 	 	 2569 	 	 122 
 